TOUR_SECTION
1
99
63
119
93
18
81
55
29
128
76
95
173
194
200
101
172
149
58
120
97
8
145
187
117
199
23
193
33
83
87
12
195
43
84
47
107
168
154
196
108
125
27
82
53
103
100
102
112
105
118
59
201
146
54
11
89
189
96
143
34
137
72
157
2
66
180
127
131
115
19
35
13
45
64
80
184
31
136
162
57
150
163
4
190
197
181
17
151
60
176
126
183
152
188
7
148
38
70
15
61
159
171
74
144
69
178
20
71
141
68
26
129
135
110
51
85
5
166
91
121
114
179
130
191
16
78
111
185
164
104
160
67
165
167
198
40
73
98
30
140
86
6
155
169
132
139
192
174
3
116
46
123
14
156
109
175
50
25
122
39
147
24
65
88
79
186
170
21
52
177
138
133
75
22
124
37
56
182
28
106
94
90
158
92
77
32
44
36
113
134
161
49
9
42
153
62
41
48
10
142
-1
EOF